0 0 0 0
0 1 0 0
0 2 0 0
0 3 1 0
0 4 0 4
0 5 0 4
0 6 0 5
0 7 0 4
0 8 1 4
0 9 0 2
0 10 0 8
0 11 0 8
0 12 2 8
0 13 1 2
0 14 0 4
0 15 0 5
0 16 0 8
0 17 0 7
0 18 0 8
0 19 0 11
0 20 0 9
0 21 1 11
0 22 1 8
0 23 0 12
0 24 0 11
0 25 0 18
0 26 0 17
0 27 0 18
0 28 0 24
0 29 2 15
0 30 0 18
0 31 0 27
